Minimize
+y0 +y1 +y2 +y3 +y4 +y5 +y6 +y7 +y8 +y9 +y10 +y11 +y12 +y13 +y14 +y15 +y16 +y17 +y18 +y19 
+y20 +y21 +y22 +y23 +y24 +y25 +y26 +y27 +y28 +y29 +y30 +y31 +y32 +y33 +y34 +y35 +y36 +y37 +y38 +y39 
+y40 +y41 +y42 +y43 +y44 +y45 +y46 +y47 +y48 +y49 +y50 +y51 +y52 +y53 +y54 +y55 +y56 +y57 +y58 +y59 
+y60 +y61 +y62 +y63 +y64 +y65 +y66 +y67 +y68 +y69 +y70 +y71 +y72 +y73 +y74 +y75 +y76 +y77 +y78 +y79 
+y80 +y81 +y82 +y83 +y84 +y85 +y86 +y87 +y88 +y89 +y90 +y91 +y92 +y93 +y94 +y95 +y96 +y97 +y98 +y99 
+y100 +y101 +y102 +y103 +y104 +y105 +y106 +y107 +y108 +y109 +y110 +y111 +y112 +y113 +y114 +y115 +y116 +y117 +y118 +y119 
+y120 +y121 +y122 +y123 +y124 +y125 +y126 +y127 +y128 +y129 +y130 +y131 +y132 +y133 +y134 +y135 +y136 +y137 +y138 +y139 
+y140 +y141 +y142 +y143 +y144 +y145 +y146 +y147 +y148 +y149 +y150 +y151 +y152 +y153 +y154 +y155 +y156 +y157 +y158 +y159 
+y160 +y161 +y162 +y163 +y164 +y165 +y166 +y167 +y168 +y169 +y170 +y171 +y172 +y173 +y174 +y175 +y176 +y177 +y178 +y179 
+y180 +y181 +y182 +y183 +y184 +y185 +y186 +y187 +y188 +y189 +y190 +y191 +y192 +y193 +y194 +y195 +y196 +y197 +y198 +y199 
+y200 +y201 +y202 +y203 +y204 +y205 +y206 +y207 +y208 +y209 +y210 +y211 +y212 +y213 +y214 +y215 +y216 +y217 +y218 +y219 
+y220 +y221 +y222 +y223 +y224 +y225 +y226 +y227 +y228 +y229 +y230 +y231 +y232 +y233 +y234 +y235 +y236 +y237 +y238 +y239 
+y240 +y241 +y242 +y243 +y244 +y245 +y246 +y247 +y248 +y249 +y250 +y251 +y252 +y253 +y254 +y255 +y256 +y257 +y258 +y259 
+y260 +y261 +y262 +y263 +y264 +y265 +y266 +y267 +y268 +y269 +y270 +y271 +y272 +y273 +y274 +y275 +y276 +y277 +y278 +y279 
+y280 +y281 +y282 +y283 +y284 +y285 +y286 +y287 +y288 +y289 +y290 +y291 +y292 +y293 +y294 +y295 +y296 +y297 +y298 +y299 
+y300 +y301 +y302 +y303 +y304 +y305 +y306 +y307 +y308 +y309 +y310 +y311 +y312 +y313 +y314 +y315 +y316 +y317 +y318 +y319 
+y320 +y321 +y322 +y323 +y324 +y325 +y326 +y327 +y328 +y329 +y330 +y331 +y332 +y333 +y334 +y335 +y336 +y337 +y338 +y339 
+y340 +y341 +y342 +y343 +y344 +y345 +y346 +y347 +y348 +y349 +y350 +y351 +y352 +y353 +y354 +y355 +y356 +y357 +y358 +y359 
+y360 +y361 +y362 +y363 +y364 +y365 +y366 +y367 +y368 +y369 +y370 +y371 +y372 +y373 +y374 +y375 +y376 +y377 +y378 +y379 
+y380 +y381 +y382 +y383 +y384 +y385 +y386 +y387 +y388 +y389 +y390 +y391 +y392 +y393 +y394 +y395 +y396 +y397 +y398 +y399 
+y400 +y401 +y402 +y403 +y404 +y405 +y406 +y407 +y408 +y409 +y410 +y411 +y412 +y413 +y414 +y415 +y416 +y417 +y418 +y419 
+y420 +y421 +y422 +y423 +y424 +y425 +y426 +y427 +y428 +y429 +y430 +y431 +y432 +y433 +y434 +y435 +y436 +y437 +y438 +y439 
+y440 +y441 +y442 +y443 +y444 +y445 +y446 +y447 +y448 +y449 +y450 +y451 +y452 +y453 +y454 +y455 +y456 +y457 +y458 +y459 
+y460 +y461 +y462 +y463 +y464 +y465 +y466 +y467 +y468 +y469 +y470 +y471 +y472 +y473 +y474 +y475 +y476 +y477 +y478 +y479 
+y480 +y481 +y482 +y483 +y484 +y485 +y486 +y487 +y488 +y489 +y490 +y491 +y492 +y493 +y494 +y495 +y496 +y497 +y498 +y499 


Subject To

+y0 +y15 +y23 +y24 +y59 +y64 +y131 +y156 +y182 +y189 +y221 +y263 +y324 +y344 +y354 +y414 +y427 +y438 +y446 
+y462 +y494  = 1
+y0 +y27 +y56 +y92 +y108 +y118 +y127 +y144 +y147 +y148 +y168 +y211 +y228 +y231 +y232 +y274 +y284 +y286 +y293 
+y298 +y355 +y357 +y380 +y402 +y434 +y438 +y465 +y476 +y483  = 1
+y1 +y14 +y37 +y48 +y51 +y61 +y76 +y93 +y108 +y109 +y117 +y131 +y136 +y144 +y153 +y184 +y194 +y222 +y223 
+y227 +y239 +y241 +y257 +y321 +y323 +y337 +y339 +y389 +y422 +y442 +y450 +y466 +y468 +y478  = 1
+y22 +y80 +y101 +y186 +y188 +y248 +y250 +y265 +y269 +y274 +y363 +y373 +y379 +y380 +y422 +y461 +y489  = 1
+y0 +y5 +y6 +y117 +y168 +y201 +y216 +y278 +y315 +y371 +y376 +y386 +y389 +y418 +y436 +y442 +y449 +y474 +y478 
+y485 +y489  = 1
+y17 +y45 +y66 +y74 +y87 +y108 +y116 +y121 +y126 +y130 +y136 +y168 +y172 +y234 +y235 +y240 +y272 +y302 +y316 
+y320 +y356 +y375 +y387 +y412 +y413 +y446 +y447 +y486  = 1
+y41 +y72 +y78 +y124 +y145 +y154 +y159 +y162 +y167 +y203 +y210 +y236 +y281 +y282 +y301 +y353 +y363 +y372 +y378 
+y402 +y406 +y418 +y426 +y428 +y430 +y434 +y442 +y471  = 1
+y3 +y34 +y40 +y46 +y59 +y99 +y104 +y109 +y168 +y188 +y190 +y191 +y235 +y255 +y258 +y268 +y270 +y331 +y350 
+y357 +y394 +y395 +y397 +y423 +y434 +y449 +y468  = 1
+y44 +y74 +y81 +y95 +y96 +y103 +y140 +y148 +y153 +y186 +y188 +y203 +y211 +y217 +y255 +y262 +y273 +y276 +y289 
+y346 +y350 +y396 +y418 +y455 +y458 +y462  = 1
+y45 +y117 +y139 +y141 +y174 +y184 +y189 +y232 +y273 +y285 +y297 +y302 +y323 +y324 +y327 +y358 +y383 +y422 +y440 
+y473  = 1
+y29 +y53 +y65 +y90 +y124 +y154 +y178 +y187 +y195 +y213 +y218 +y251 +y281 +y286 +y349 +y367 +y403 +y411 +y452 
 = 1
+y38 +y40 +y47 +y55 +y67 +y80 +y128 +y192 +y205 +y225 +y233 +y262 +y284 +y359 +y374 +y434 +y446 +y463 +y469 
+y484 +y490 +y496  = 1
+y9 +y11 +y27 +y31 +y54 +y88 +y146 +y189 +y192 +y259 +y270 +y280 +y281 +y298 +y353 +y402 +y403 +y410 +y436 
+y477 +y482 +y493  = 1
+y1 +y11 +y31 +y60 +y82 +y90 +y91 +y92 +y120 +y140 +y152 +y159 +y176 +y226 +y231 +y285 +y299 +y323 +y326 
+y405 +y434 +y472  = 1
+y10 +y42 +y56 +y79 +y91 +y112 +y149 +y154 +y186 +y201 +y217 +y235 +y240 +y242 +y260 +y271 +y298 +y301 +y330 
+y344 +y445 +y454 +y489  = 1
+y11 +y25 +y31 +y62 +y136 +y161 +y205 +y241 +y260 +y287 +y297 +y304 +y317 +y332 +y340 +y352 +y427 +y430 +y461 
+y470 +y493 +y495  = 1
+y38 +y56 +y60 +y64 +y66 +y92 +y121 +y122 +y148 +y166 +y171 +y174 +y175 +y182 +y203 +y233 +y239 +y248 +y292 
+y373 +y387 +y391 +y394 +y450 +y454 +y455 +y468 +y472 +y487  = 1
+y69 +y81 +y93 +y117 +y166 +y170 +y181 +y194 +y197 +y198 +y242 +y256 +y258 +y280 +y288 +y296 +y297 +y298 +y304 
+y309 +y317 +y409 +y419 +y427 +y433 +y466 +y473 +y492 +y495  = 1
+y2 +y28 +y39 +y65 +y67 +y76 +y94 +y112 +y152 +y162 +y181 +y188 +y196 +y204 +y219 +y225 +y226 +y243 +y255 
+y266 +y299 +y307 +y309 +y313 +y348 +y351 +y367 +y468 +y481 +y498  = 1
+y107 +y114 +y126 +y142 +y156 +y196 +y204 +y263 +y301 +y303 +y328 +y337 +y357 +y375 +y391 +y404 +y460 +y465 +y466 
+y469 +y472 +y484 +y488 +y492 +y497  = 1
+y11 +y36 +y64 +y102 +y109 +y128 +y142 +y148 +y174 +y178 +y193 +y205 +y223 +y231 +y257 +y265 +y310 +y340 +y377 
+y385 +y390 +y408 +y412 +y423 +y439  = 1
+y6 +y8 +y16 +y21 +y57 +y84 +y112 +y113 +y116 +y177 +y182 +y204 +y254 +y293 +y336 +y343 +y362 +y419 +y467 
+y473  = 1
+y23 +y34 +y54 +y63 +y100 +y132 +y137 +y161 +y164 +y166 +y204 +y221 +y228 +y292 +y293 +y303 +y343 +y368 +y403 
+y440 +y469 +y476 +y477 +y478  = 1
+y8 +y34 +y48 +y101 +y136 +y157 +y168 +y226 +y237 +y303 +y307 +y308 +y322 +y325 +y328 +y356 +y378 +y389 +y405 
+y412 +y430 +y449 +y454 +y484 +y498  = 1
+y24 +y69 +y83 +y136 +y139 +y162 +y302 +y340 +y367 +y372 +y401 +y440 +y488  = 1
+y6 +y9 +y17 +y27 +y33 +y49 +y77 +y98 +y127 +y130 +y183 +y199 +y208 +y211 +y221 +y265 +y270 +y293 +y297 
+y314 +y317 +y336 +y358 +y389 +y390 +y449 +y498  = 1
+y71 +y79 +y106 +y133 +y134 +y142 +y153 +y186 +y198 +y229 +y248 +y261 +y274 +y280 +y323 +y345 +y360 +y386 +y420 
+y430 +y433 +y461 +y476 +y479 +y481  = 1
+y23 +y35 +y95 +y112 +y152 +y174 +y176 +y192 +y259 +y260 +y294 +y345 +y367 +y373 +y381 +y393 +y413 +y420 +y464 
+y482  = 1
+y0 +y11 +y16 +y22 +y26 +y58 +y60 +y75 +y83 +y111 +y120 +y155 +y160 +y173 +y186 +y187 +y189 +y227 +y240 
+y254 +y276 +y281 +y296 +y298 +y299 +y327 +y365 +y370 +y373 +y390 +y421  = 1
+y37 +y64 +y73 +y85 +y86 +y88 +y89 +y109 +y148 +y181 +y215 +y232 +y272 +y281 +y310 +y313 +y319 +y320 +y325 
+y338 +y349 +y354 +y390 +y467 +y473 +y477 +y488  = 1
+y5 +y37 +y58 +y85 +y87 +y114 +y127 +y130 +y141 +y142 +y172 +y193 +y218 +y220 +y236 +y286 +y291 +y305 +y339 
+y350 +y381 +y424 +y446 +y447 +y450 +y462 +y465 +y470 +y475 +y482 +y487 +y488 +y490  = 1
+y27 +y28 +y38 +y74 +y108 +y126 +y147 +y150 +y165 +y177 +y179 +y197 +y211 +y224 +y237 +y242 +y273 +y294 +y300 
+y306 +y320 +y328 +y339 +y347 +y388 +y414 +y424 +y440 +y486 +y490 +y498  = 1
+y6 +y10 +y19 +y26 +y30 +y44 +y61 +y77 +y79 +y88 +y145 +y170 +y173 +y178 +y182 +y188 +y197 +y209 +y212 
+y233 +y267 +y308 +y323 +y344 +y355 +y358 +y359 +y384 +y393 +y397 +y436 +y443 +y465 +y485 +y492 +y493  = 1
+y50 +y56 +y99 +y115 +y119 +y136 +y210 +y274 +y279 +y291 +y307 +y311 +y353 +y411 +y416 +y421 +y442 +y474  = 1
+y28 +y29 +y43 +y51 +y92 +y97 +y99 +y104 +y105 +y136 +y170 +y188 +y192 +y194 +y215 +y218 +y234 +y262 +y270 
+y282 +y328 +y343 +y359 +y367 +y372 +y401 +y419 +y441 +y490 +y497  = 1
+y39 +y53 +y60 +y61 +y83 +y106 +y110 +y140 +y146 +y212 +y250 +y266 +y286 +y330 +y376 +y383 +y396 +y439 +y456 
+y488  = 1
+y22 +y57 +y69 +y75 +y77 +y83 +y86 +y151 +y157 +y160 +y194 +y198 +y235 +y246 +y281 +y306 +y307 +y320 +y380 
+y390 +y400 +y403 +y436 +y457 +y490  = 1
+y1 +y20 +y49 +y54 +y61 +y96 +y194 +y209 +y220 +y223 +y243 +y262 +y264 +y284 +y285 +y319 +y339 +y341 +y353 
+y358 +y363 +y378 +y401 +y433 +y441 +y448 +y457 +y463  = 1
+y3 +y42 +y48 +y60 +y126 +y145 +y223 +y240 +y250 +y267 +y274 +y296 +y318 +y319 +y339 +y347 +y361 +y364 +y407 
+y420 +y442 +y466 +y473  = 1
+y7 +y8 +y23 +y83 +y84 +y130 +y201 +y289 +y329 +y370 +y422 +y423 +y425 +y427 +y452 +y453 +y457 +y463 +y470 
+y484  = 1
+y40 +y42 +y50 +y64 +y72 +y93 +y101 +y137 +y156 +y179 +y194 +y206 +y217 +y235 +y282 +y332 +y342 +y349 +y352 
+y415 +y463 +y494  = 1
+y25 +y46 +y56 +y65 +y73 +y96 +y141 +y154 +y163 +y194 +y198 +y255 +y273 +y276 +y295 +y388 +y423 +y458 +y482 
+y489 +y499  = 1
+y12 +y13 +y22 +y120 +y123 +y153 +y163 +y205 +y209 +y220 +y237 +y244 +y245 +y271 +y281 +y284 +y306 +y312 +y321 
+y328 +y383 +y384 +y385 +y410 +y422 +y436  = 1
+y5 +y11 +y22 +y54 +y60 +y74 +y85 +y101 +y112 +y129 +y150 +y207 +y213 +y222 +y237 +y243 +y250 +y278 +y291 
+y311 +y343 +y367 +y396 +y403 +y423 +y432 +y462  = 1
+y0 +y17 +y135 +y146 +y149 +y180 +y239 +y271 +y294 +y299 +y304 +y327 +y329 +y346 +y362 +y395 +y401 +y402 +y440 
+y442 +y461 +y474 +y494  = 1
+y0 +y1 +y17 +y18 +y46 +y54 +y73 +y79 +y87 +y95 +y117 +y151 +y152 +y187 +y192 +y200 +y286 +y297 +y322 
+y341 +y354 +y368 +y385 +y389 +y399 +y453 +y455 +y476 +y499  = 1
+y9 +y70 +y92 +y117 +y147 +y154 +y195 +y196 +y202 +y212 +y231 +y236 +y237 +y289 +y292 +y311 +y333 +y335 +y365 
+y385 +y390 +y424 +y426 +y436 +y443 +y473 +y476 +y477 +y487 +y488 +y496  = 1
+y11 +y27 +y41 +y48 +y52 +y54 +y76 +y142 +y168 +y186 +y194 +y207 +y209 +y210 +y228 +y235 +y249 +y250 +y269 
+y338 +y360 +y371 +y387 +y462 +y498  = 1
+y3 +y13 +y23 +y69 +y100 +y101 +y131 +y152 +y155 +y232 +y238 +y262 +y263 +y292 +y299 +y321 +y331 +y337 +y362 
+y364 +y387 +y394 +y395 +y405 +y469 +y472 +y475 +y491 +y497  = 1
+y43 +y55 +y57 +y73 +y78 +y91 +y92 +y150 +y179 +y184 +y320 +y342 +y392 +y430 +y493 +y495 +y496  = 1
+y11 +y18 +y56 +y74 +y89 +y112 +y119 +y122 +y153 +y178 +y199 +y203 +y204 +y205 +y227 +y233 +y293 +y350 +y360 
+y391 +y449 +y452 +y465 +y470  = 1
+y10 +y15 +y25 +y33 +y40 +y64 +y66 +y85 +y92 +y110 +y113 +y122 +y164 +y192 +y251 +y254 +y304 +y318 +y336 
+y359 +y360 +y393 +y402 +y416 +y427 +y457 +y471 +y483 +y484  = 1
+y23 +y39 +y54 +y83 +y124 +y163 +y209 +y242 +y262 +y270 +y287 +y309 +y329 +y390 +y421 +y427 +y477  = 1
+y26 +y59 +y82 +y99 +y176 +y182 +y224 +y239 +y276 +y301 +y320 +y358 +y370 +y379 +y394 +y405 +y412 +y430 +y442 
+y461 +y462 +y488 +y490 +y492  = 1
+y24 +y52 +y53 +y67 +y74 +y91 +y137 +y141 +y155 +y158 +y203 +y205 +y217 +y220 +y234 +y244 +y295 +y380 +y390 
+y406 +y447 +y459  = 1
+y22 +y63 +y78 +y84 +y97 +y143 +y152 +y170 +y192 +y204 +y205 +y208 +y272 +y278 +y296 +y301 +y337 +y340 +y361 
+y363 +y373 +y391 +y403 +y480 +y482  = 1
+y16 +y30 +y36 +y51 +y69 +y80 +y84 +y199 +y226 +y244 +y278 +y313 +y337 +y373 +y375 +y416 +y429 +y435 +y457 
 = 1
+y13 +y14 +y40 +y46 +y51 +y60 +y61 +y69 +y104 +y160 +y193 +y227 +y259 +y263 +y268 +y361 +y386 +y396 +y455 
+y471 +y480  = 1
+y6 +y17 +y32 +y55 +y79 +y84 +y91 +y135 +y151 +y168 +y171 +y203 +y209 +y220 +y236 +y243 +y262 +y283 +y294 
+y304 +y344 +y347 +y358 +y366 +y372 +y427 +y458  = 1
+y37 +y38 +y46 +y65 +y98 +y136 +y147 +y172 +y188 +y191 +y203 +y217 +y255 +y260 +y265 +y279 +y285 +y343 +y345 
+y363 +y378 +y390 +y401 +y405 +y419 +y447  = 1
+y9 +y36 +y39 +y61 +y111 +y135 +y136 +y150 +y172 +y179 +y204 +y209 +y274 +y284 +y312 +y313 +y396 +y402 +y438 
+y464 +y465 +y468 +y496 +y499  = 1
+y15 +y19 +y30 +y38 +y45 +y52 +y53 +y57 +y64 +y85 +y98 +y104 +y107 +y110 +y119 +y138 +y169 +y180 +y191 
+y217 +y226 +y230 +y238 +y276 +y283 +y297 +y298 +y315 +y321 +y323 +y345 +y371 +y376 +y403 +y419 +y421  = 1
+y67 +y74 +y82 +y165 +y199 +y210 +y212 +y228 +y252 +y288 +y300 +y325 +y336 +y394 +y420  = 1
+y8 +y22 +y27 +y32 +y33 +y58 +y62 +y78 +y88 +y106 +y119 +y196 +y269 +y280 +y306 +y344 +y372 +y380 +y384 
+y388 +y445 +y456 +y479  = 1
+y31 +y78 +y112 +y123 +y145 +y149 +y163 +y166 +y176 +y183 +y184 +y216 +y219 +y283 +y287 +y294 +y335 +y355 +y381 
+y413 +y417 +y449 +y479 +y485 +y491 +y492 +y496 +y499  = 1
+y43 +y78 +y87 +y139 +y142 +y158 +y184 +y186 +y255 +y281 +y286 +y291 +y296 +y325 +y361 +y373 +y385 +y423 +y456 
+y470  = 1
+y13 +y19 +y102 +y107 +y177 +y212 +y224 +y255 +y262 +y272 +y311 +y324 +y329 +y344 +y360 +y387 +y441 +y482  = 1
+y50 +y64 +y138 +y209 +y245 +y260 +y261 +y262 +y351 +y376 +y386 +y399 +y414 +y415 +y421 +y424 +y427 +y428 +y432 
+y467 +y470  = 1
+y15 +y26 +y35 +y37 +y47 +y51 +y83 +y84 +y107 +y134 +y227 +y228 +y234 +y241 +y256 +y291 +y306 +y317 +y324 
+y331 +y337 +y376 +y402 +y436 +y459 +y498  = 1
+y49 +y65 +y83 +y87 +y99 +y106 +y112 +y136 +y138 +y166 +y234 +y243 +y290 +y309 +y316 +y321 +y342 +y349 +y379 
+y417 +y456 +y468 +y497  = 1
+y8 +y60 +y62 +y74 +y87 +y110 +y112 +y123 +y138 +y139 +y149 +y172 +y240 +y241 +y256 +y312 +y336 +y350 +y351 
+y378 +y408 +y418 +y428 +y447 +y464 +y485 +y486  = 1
+y17 +y38 +y54 +y69 +y82 +y89 +y94 +y100 +y138 +y142 +y155 +y181 +y205 +y207 +y212 +y261 +y293 +y318 +y324 
+y325 +y351 +y369 +y388 +y393 +y400 +y477  = 1
+y6 +y28 +y31 +y40 +y76 +y98 +y110 +y144 +y166 +y178 +y182 +y224 +y236 +y293 +y323 +y341 +y347 +y351 +y360 
+y374 +y378 +y382 +y400 +y405 +y408 +y425 +y426 +y474 +y485  = 1
+y60 +y61 +y76 +y79 +y84 +y114 +y125 +y197 +y221 +y231 +y245 +y259 +y265 +y268 +y277 +y282 +y287 +y298 +y315 
+y317 +y324 +y402 +y419 +y420 +y421 +y426 +y483 +y489  = 1
+y2 +y3 +y4 +y18 +y29 +y37 +y45 +y67 +y76 +y77 +y101 +y118 +y133 +y142 +y163 +y193 +y263 +y287 +y320 
+y322 +y337 +y349 +y352 +y393 +y413 +y453 +y459 +y475  = 1
+y1 +y65 +y68 +y157 +y158 +y202 +y221 +y227 +y239 +y249 +y256 +y284 +y310 +y314 +y318 +y321 +y322 +y325 +y328 
+y334 +y385 +y398 +y402 +y414 +y422 +y481 +y498  = 1
+y8 +y20 +y28 +y38 +y50 +y61 +y66 +y79 +y81 +y83 +y137 +y140 +y185 +y191 +y193 +y206 +y213 +y266 +y274 
+y278 +y281 +y336 +y352 +y355 +y363 +y400 +y416 +y466 +y472 +y482  = 1
+y1 +y68 +y82 +y93 +y104 +y167 +y196 +y227 +y257 +y274 +y275 +y284 +y329 +y334 +y336 +y340 +y351 +y354 +y366 
+y404 +y407 +y478 +y485  = 1
+y50 +y86 +y111 +y117 +y118 +y123 +y124 +y142 +y190 +y195 +y208 +y209 +y210 +y222 +y262 +y288 +y297 +y319 +y326 
+y379 +y439 +y454 +y458 +y467 +y470 +y474 +y482 +y491  = 1
+y5 +y50 +y54 +y67 +y78 +y134 +y141 +y145 +y169 +y186 +y188 +y224 +y229 +y239 +y293 +y325 +y355 +y362 +y371 
+y375 +y384 +y392 +y400 +y401 +y408 +y420 +y439 +y443 +y472 +y490 +y492  = 1
+y12 +y76 +y116 +y128 +y150 +y182 +y183 +y249 +y287 +y291 +y327 +y332 +y340 +y412 +y419 +y463 +y480 +y493  = 1
+y0 +y2 +y14 +y53 +y60 +y78 +y100 +y116 +y142 +y155 +y163 +y169 +y176 +y191 +y208 +y212 +y248 +y266 +y269 
+y275 +y284 +y290 +y342 +y350 +y408 +y409 +y423 +y458 +y471 +y478  = 1
+y4 +y19 +y35 +y47 +y75 +y91 +y100 +y106 +y143 +y165 +y177 +y205 +y321 +y412 +y428 +y440 +y450 +y469 +y487 
 = 1
+y11 +y15 +y39 +y62 +y86 +y90 +y105 +y114 +y122 +y127 +y151 +y201 +y233 +y238 +y242 +y264 +y271 +y302 +y304 
+y321 +y322 +y340 +y344 +y349 +y355 +y382 +y393 +y412 +y434 +y470 +y476 +y480 +y488  = 1
+y2 +y48 +y89 +y92 +y96 +y101 +y108 +y146 +y150 +y154 +y186 +y216 +y253 +y260 +y269 +y282 +y317 +y325 +y388 
+y437 +y444 +y474  = 1
+y5 +y11 +y29 +y128 +y154 +y157 +y162 +y184 +y188 +y213 +y214 +y232 +y239 +y250 +y254 +y255 +y263 +y264 +y269 
+y290 +y291 +y341 +y394 +y428 +y434 +y437 +y448 +y449 +y469 +y496  = 1
+y57 +y86 +y99 +y109 +y119 +y134 +y141 +y148 +y161 +y244 +y288 +y317 +y329 +y338 +y342 +y380 +y402 +y411 +y417 
+y460 +y483  = 1
+y13 +y20 +y35 +y60 +y62 +y72 +y113 +y122 +y133 +y164 +y168 +y170 +y185 +y197 +y200 +y209 +y216 +y225 +y229 
+y231 +y258 +y277 +y283 +y327 +y333 +y337 +y355 +y367 +y379 +y400 +y460  = 1
+y11 +y18 +y42 +y54 +y68 +y111 +y172 +y182 +y263 +y265 +y280 +y289 +y306 +y321 +y324 +y328 +y356 +y358 +y378 
+y400 +y457 +y477 +y492  = 1
+y1 +y38 +y41 +y93 +y94 +y132 +y158 +y163 +y171 +y192 +y222 +y238 +y249 +y256 +y267 +y277 +y321 +y322 +y385 
+y410 +y419  = 1
+y6 +y67 +y68 +y82 +y90 +y201 +y248 +y250 +y258 +y265 +y267 +y287 +y308 +y340 +y345 +y352 +y386 +y470 +y481 
 = 1
+y20 +y42 +y63 +y94 +y142 +y152 +y159 +y162 +y189 +y196 +y231 +y269 +y271 +y287 +y289 +y295 +y312 +y321 +y348 
+y393 +y398 +y416 +y460 +y475 +y479  = 1
+y43 +y59 +y71 +y76 +y102 +y122 +y130 +y145 +y163 +y195 +y220 +y221 +y237 +y260 +y273 +y312 +y330 +y337 +y343 
+y378 +y411 +y449 +y470  = 1
+y24 +y49 +y83 +y110 +y146 +y179 +y209 +y223 +y235 +y239 +y263 +y292 +y301 +y339 +y355 +y367 +y399 +y457 +y466 
+y474 +y497  = 1
+y0 +y9 +y34 +y55 +y90 +y104 +y134 +y163 +y212 +y239 +y244 +y373 +y435 +y445 +y480 +y484 +y497  = 1
+y31 +y32 +y33 +y55 +y108 +y109 +y111 +y140 +y146 +y186 +y197 +y208 +y225 +y236 +y237 +y254 +y274 +y294 +y319 
+y321 +y414 +y443 +y468 +y474 +y477 +y487 +y492 +y499  = 1
+y31 +y88 +y94 +y95 +y105 +y146 +y210 +y288 +y298 +y299 +y301 +y311 +y324 +y329 +y331 +y337 +y358 +y372 +y375 
+y378 +y380 +y400 +y425 +y436 +y465 +y497  = 1
+y16 +y24 +y36 +y46 +y50 +y62 +y90 +y143 +y144 +y164 +y198 +y206 +y215 +y219 +y236 +y242 +y244 +y247 +y281 
+y313 +y319 +y324 +y345 +y351 +y356 +y370 +y390 +y396 +y425 +y431 +y433 +y439 +y457 +y462  = 1
+y0 +y8 +y34 +y54 +y60 +y67 +y88 +y103 +y115 +y153 +y187 +y203 +y221 +y222 +y231 +y263 +y281 +y292 +y304 
+y311 +y324 +y337 +y340 +y381 +y409 +y414 +y426 +y427 +y433 +y466  = 1
+y7 +y25 +y52 +y59 +y85 +y99 +y108 +y109 +y112 +y117 +y141 +y153 +y160 +y170 +y188 +y231 +y236 +y267 +y269 
+y295 +y327 +y371 +y392 +y453 +y484  = 1


Binaries

 y0  y1  y2  y3  y4  y5  y6  y7  y8  y9  y10  y11  y12  y13  y14  y15  y16  y17  y18  y19 
 y20  y21  y22  y23  y24  y25  y26  y27  y28  y29  y30  y31  y32  y33  y34  y35  y36  y37  y38  y39 
 y40  y41  y42  y43  y44  y45  y46  y47  y48  y49  y50  y51  y52  y53  y54  y55  y56  y57  y58  y59 
 y60  y61  y62  y63  y64  y65  y66  y67  y68  y69  y70  y71  y72  y73  y74  y75  y76  y77  y78  y79 
 y80  y81  y82  y83  y84  y85  y86  y87  y88  y89  y90  y91  y92  y93  y94  y95  y96  y97  y98  y99 
 y100  y101  y102  y103  y104  y105  y106  y107  y108  y109  y110  y111  y112  y113  y114  y115  y116  y117  y118  y119 
 y120  y121  y122  y123  y124  y125  y126  y127  y128  y129  y130  y131  y132  y133  y134  y135  y136  y137  y138  y139 
 y140  y141  y142  y143  y144  y145  y146  y147  y148  y149  y150  y151  y152  y153  y154  y155  y156  y157  y158  y159 
 y160  y161  y162  y163  y164  y165  y166  y167  y168  y169  y170  y171  y172  y173  y174  y175  y176  y177  y178  y179 
 y180  y181  y182  y183  y184  y185  y186  y187  y188  y189  y190  y191  y192  y193  y194  y195  y196  y197  y198  y199 
 y200  y201  y202  y203  y204  y205  y206  y207  y208  y209  y210  y211  y212  y213  y214  y215  y216  y217  y218  y219 
 y220  y221  y222  y223  y224  y225  y226  y227  y228  y229  y230  y231  y232  y233  y234  y235  y236  y237  y238  y239 
 y240  y241  y242  y243  y244  y245  y246  y247  y248  y249  y250  y251  y252  y253  y254  y255  y256  y257  y258  y259 
 y260  y261  y262  y263  y264  y265  y266  y267  y268  y269  y270  y271  y272  y273  y274  y275  y276  y277  y278  y279 
 y280  y281  y282  y283  y284  y285  y286  y287  y288  y289  y290  y291  y292  y293  y294  y295  y296  y297  y298  y299 
 y300  y301  y302  y303  y304  y305  y306  y307  y308  y309  y310  y311  y312  y313  y314  y315  y316  y317  y318  y319 
 y320  y321  y322  y323  y324  y325  y326  y327  y328  y329  y330  y331  y332  y333  y334  y335  y336  y337  y338  y339 
 y340  y341  y342  y343  y344  y345  y346  y347  y348  y349  y350  y351  y352  y353  y354  y355  y356  y357  y358  y359 
 y360  y361  y362  y363  y364  y365  y366  y367  y368  y369  y370  y371  y372  y373  y374  y375  y376  y377  y378  y379 
 y380  y381  y382  y383  y384  y385  y386  y387  y388  y389  y390  y391  y392  y393  y394  y395  y396  y397  y398  y399 
 y400  y401  y402  y403  y404  y405  y406  y407  y408  y409  y410  y411  y412  y413  y414  y415  y416  y417  y418  y419 
 y420  y421  y422  y423  y424  y425  y426  y427  y428  y429  y430  y431  y432  y433  y434  y435  y436  y437  y438  y439 
 y440  y441  y442  y443  y444  y445  y446  y447  y448  y449  y450  y451  y452  y453  y454  y455  y456  y457  y458  y459 
 y460  y461  y462  y463  y464  y465  y466  y467  y468  y469  y470  y471  y472  y473  y474  y475  y476  y477  y478  y479 
 y480  y481  y482  y483  y484  y485  y486  y487  y488  y489  y490  y491  y492  y493  y494  y495  y496  y497  y498  y499 


End
